cnf-files/prime-factorization/prime-factorization-60466176.cnf
p cnf 1383
-3 -429
-4 430
-5 431
-6 432
-7 433
-8 434
-9 435
-10 436
-11 437
-12 438
-13 439
-14 440
-15 441
-16 442
-17 443
-18 444
-19 445
-20 446
-21 447
-22 448
-23 449
-24 450
-25 451
-26 452
-27 453
-28 454
-29 -3
-29 -4
3 4 29
-30 -5
-30 -6
5 6 30
-31 -7
-31 -8
7 8 31
-32 -9
-32 -10
9 10 32
-33 -11
-33 -12
11 12 33
-34 -13
-34 -14
13 14 34
-35 -15
-35 -16
15 16 35
-36 -17
-36 -18
17 18 36
-37 -19
-37 -20
19 20 37
-38 -21
-38 -22
21 22 38
-39 -23
-39 -24
23 24 39
-40 -25
-40 -26
25 26 40
-41 -27
-41 -28
27 28 41
-42 29
-42 30
-29 -30 42
-43 31
-43 32
-31 -32 43
-44 33
-44 34
-33 -34 44
-45 35
-45 36
-35 -36 45
-46 37
-46 38
-37 -38 46
-47 39
-47 40
-39 -40 47
-48 42
-48 43
-42 -43 48
-49 44
-49 45
-44 -45 49
-50 46
-50 47
-46 -47 50
-51 48
-51 49
-48 -49 51
-52 41
-52 50
-41 -50 52
-53 51
-53 52
-51 -52 53
-54 1
-54 3
-1 -3 54
-55 2
-55 3
-2 -3 55
-56 1
-56 4
-1 -4 56
-57 2
-57 4
-2 -4 57
-58 55
-58 -56
-55 56 58
-59 -55
-59 56
55 -56 59
-60 -58
-60 -59
58 59 60
-61 55
-61 56
-55 -56 61
-62 57
-62 -61
-57 61 62
-63 -57
-63 61
57 -61 63
-64 -62
-64 -63
62 63 64
-65 57
-65 61
-57 -61 65
-66 1
-66 5
-1 -5 66
-67 2
-67 5
-2 -5 67
-68 -64
-68 -66
64 66 68
-69 64
-69 66
-64 -66 69
-70 -68
-70 -69
68 69 70
-71 -64
-71 66
64 -66 71
-72 65
-72 -67
-65 67 72
-73 -65
-73 67
65 -67 73
-74 -72
-74 -73
72 73 74
-75 65
-75 67
-65 -67 75
-76 -71
-76 -74
71 74 76
-77 71
-77 74
-71 -74 77
-78 -76
-78 -77
76 77 78
-79 71
-79 -74
-71 74 79
-80 -75
-80 -79
75 79 80
-81 1
-81 6
-1 -6 81
-82 2
-82 6
-2 -6 82
-83 -78
-83 -81
78 81 83
-84 78
-84 81
-78 -81 84
-85 -83
-85 -84
83 84 85
-86 -78
-86 81
78 -81 86
-87 -80
-87 -82
80 82 87
-88 80
-88 82
-80 -82 88
-89 -87
-89 -88
87 88 89
-90 -80
-90 82
80 -82 90
-91 -86
-91 -89
86 89 91
-92 86
-92 89
-86 -89 92
-93 -91
-93 -92
91 92 93
-94 86
-94 -89
-86 89 94
-95 -90
-95 -94
90 94 95
-96 1
-96 7
-1 -7 96
-97 2
-97 7
-2 -7 97
-98 -93
-98 -96
93 96 98
-99 93
-99 96
-93 -96 99
-100 -98
-100 -99
98 99 100
-101 -93
-101 96
93 -96 101
-102 -95
-102 -97
95 97 102
-103 95
-103 97
-95 -97 103
-104 -102
-104 -103
102 103 104
-105 -95
-105 97
95 -97 105
-106 -101
-106 -104
101 104 106
-107 101
-107 104
-101 -104 107
-108 -106
-108 -107
106 107 108
-109 101
-109 -104
-101 104 109
-110 -105
-110 -109
105 109 110
-111 1
-111 8
-1 -8 111
-112 2
-112 8
-2 -8 112
-113 -108
-113 -111
108 111 113
-114 108
-114 111
-108 -111 114
-115 -113
-115 -114
113 114 115
-116 -108
-116 111
108 -111 116
-117 -110
-117 -112
110 112 117
-118 110
-118 112
-110 -112 118
-119 -117
-119 -118
117 118 119
-120 -110
-120 112
110 -112 120
-121 -116
-121 -119
116 119 121
-122 116
-122 119
-116 -119 122
-123 -121
-123 -122
121 122 123
-124 116
-124 -119
-116 119 124
-125 -120
-125 -124
120 124 125
-126 1
-126 9
-1 -9 126
-127 2
-127 9
-2 -9 127
-128 -123
-128 -126
123 126 128
-129 123
-129 126
-123 -126 129
-130 -128
-130 -129
128 129 130
-131 -123
-131 126
123 -126 131
-132 -125
-132 -127
125 127 132
-133 125
-133 127
-125 -127 133
-134 -132
-134 -133
132 133 134
-135 -125
-135 127
125 -127 135
-136 -131
-136 -134
131 134 136
-137 131
-137 134
-131 -134 137
-138 -136
-138 -137
136 137 138
-139 131
-139 -134
-131 134 139
-140 -135
-140 -139
135 139 140
-141 1
-141 10
-1 -10 141
-142 2
-142 10
-2 -10 142
-143 -138
-143 -141
138 141 143
-144 138
-144 141
-138 -141 144
-145 -143
-145 -144
143 144 145
-146 -138
-146 141
138 -141 146
-147 -140
-147 -142
140 142 147
-148 140
-148 142
-140 -142 148
-149 -147
-149 -148
147 148 149
-150 -140
-150 142
140 -142 150
-151 -146
-151 -149
146 149 151
-152 146
-152 149
-146 -149 152
-153 -151
-153 -152
151 152 153
-154 146
-154 -149
-146 149 154
-155 -150
-155 -154
150 154 155
-156 1
-156 11
-1 -11 156
-157 2
-157 11
-2 -11 157
-158 -153
-158 -156
153 156 158
-159 153
-159 156
-153 -156 159
-160 -158
-160 -159
158 159 160
-161 -153
-161 156
153 -156 161
-162 -155
-162 -157
155 157 162
-163 155
-163 157
-155 -157 163
-164 -162
-164 -163
162 163 164
-165 -155
-165 157
155 -157 165
-166 -161
-166 -164
161 164 166
-167 161
-167 164
-161 -164 167
-168 -166
-168 -167
166 167 168
-169 161
-169 -164
-161 164 169
-170 -165
-170 -169
165 169 170
-171 1
-171 12
-1 -12 171
-172 2
-172 12
-2 -12 172
-173 -168
-173 -171
168 171 173
-174 168
-174 171
-168 -171 174
-175 -173
-175 -174
173 174 175
-176 -168
-176 171
168 -171 176
-177 -170
-177 -172
170 172 177
-178 170
-178 172
-170 -172 178
-179 -177
-179 -178
177 178 179
-180 -170
-180 172
170 -172 180
-181 -176
-181 -179
176 179 181
-182 176
-182 179
-176 -179 182
-183 -181
-183 -182
181 182 183
-184 176
-184 -179
-176 179 184
-185 -180
-185 -184
180 184 185
-186 1
-186 13
-1 -13 186
-187 2
-187 13
-2 -13 187
-188 -183
-188 -186
183 186 188
-189 183
-189 186
-183 -186 189
-190 -188
-190 -189
188 189 190
-191 -183
-191 186
183 -186 191
-192 -185
-192 -187
185 187 192
-193 185
-193 187
-185 -187 193
-194 -192
-194 -193
192 193 194
-195 -185
-195 187
185 -187 195
-196 -191
-196 -194
191 194 196
-197 191
-197 194
-191 -194 197
-198 -196
-198 -197
196 197 198
-199 191
-199 -194
-191 194 199
-200 -195
-200 -199
195 199 200
-201 1
-201 14
-1 -14 201
-202 2
-202 14
-2 -14 202
-203 -198
-203 -201
198 201 203
-204 198
-204 201
-198 -201 204
-205 -203
-205 -204
203 204 205
-206 -198
-206 201
198 -201 206
-207 -200
-207 -202
200 202 207
-208 200
-208 202
-200 -202 208
-209 -207
-209 -208
207 208 209
-210 -200
-210 202
200 -202 210
-211 -206
-211 -209
206 209 211
-212 206
-212 209
-206 -209 212
-213 -211
-213 -212
211 212 213
-214 206
-214 -209
-206 209 214
-215 -210
-215 -214
210 214 215
-216 1
-216 15
-1 -15 216
-217 2
-217 15
-2 -15 217
-218 -213
-218 -216
213 216 218
-219 213
-219 216
-213 -216 219
-220 -218
-220 -219
218 219 220
-221 -213
-221 216
213 -216 221
-222 -215
-222 -217
215 217 222
-223 215
-223 217
-215 -217 223
-224 -222
-224 -223
222 223 224
-225 -215
-225 217
215 -217 225
-226 -221
-226 -224
221 224 226
-227 221
-227 224
-221 -224 227
-228 -226
-228 -227
226 227 228
-229 221
-229 -224
-221 224 229
-230 -225
-230 -229
225 229 230
-231 1
-231 16
-1 -16 231
-232 2
-232 16
-2 -16 232
-233 -228
-233 -231
228 231 233
-234 228
-234 231
-228 -231 234
-235 -233
-235 -234
233 234 235
-236 -228
-236 231
228 -231 236
-237 -230
-237 -232
230 232 237
-238 230
-238 232
-230 -232 238
-239 -237
-239 -238
237 238 239
-240 -230
-240 232
230 -232 240
-241 -236
-241 -239
236 239 241
-242 236
-242 239
-236 -239 242
-243 -241
-243 -242
241 242 243
-244 236
-244 -239
-236 239 244
-245 -240
-245 -244
240 244 245
-246 1
-246 17
-1 -17 246
-247 2
-247 17
-2 -17 247
-248 -243
-248 -246
243 246 248
-249 243
-249 246
-243 -246 249
-250 -248
-250 -249
248 249 250
-251 -243
-251 246
243 -246 251
-252 -245
-252 -247
245 247 252
-253 245
-253 247
-245 -247 253
-254 -252
-254 -253
252 253 254
-255 -245
-255 247
245 -247 255
-256 -251
-256 -254
251 254 256
-257 251
-257 254
-251 -254 257
-258 -256
-258 -257
256 257 258
-259 251
-259 -254
-251 254 259
-260 -255
-260 -259
255 259 260
-261 1
-261 18
-1 -18 261
-262 2
-262 18
-2 -18 262
-263 -258
-263 -261
258 261 263
-264 258
-264 261
-258 -261 264
-265 -263
-265 -264
263 264 265
-266 -258
-266 261
258 -261 266
-267 -260
-267 -262
260 262 267
-268 260
-268 262
-260 -262 268
-269 -267
-269 -268
267 268 269
-270 -260
-270 262
260 -262 270
-271 -266
-271 -269
266 269 271
-272 266
-272 269
-266 -269 272
-273 -271
-273 -272
271 272 273
-274 266
-274 -269
-266 269 274
-275 -270
-275 -274
270 274 275
-276 1
-276 19
-1 -19 276
-277 2
-277 19
-2 -19 277
-278 -273
-278 -276
273 276 278
-279 273
-279 276
-273 -276 279
-280 -278
-280 -279
278 279 280
-281 -273
-281 276
273 -276 281
-282 -275
-282 -277
275 277 282
-283 275
-283 277
-275 -277 283
-284 -282
-284 -283
282 283 284
-285 -275
-285 277
275 -277 285
-286 -281
-286 -284
281 284 286
-287 281
-287 284
-281 -284 287
-288 -286
-288 -287
286 287 288
-289 281
-289 -284
-281 284 289
-290 -285
-290 -289
285 289 290
-291 1
-291 20
-1 -20 291
-292 2
-292 20
-2 -20 292
-293 -288
-293 -291
288 291 293
-294 288
-294 291
-288 -291 294
-295 -293
-295 -294
293 294 295
-296 -288
-296 291
288 -291 296
-297 -290
-297 -292
290 292 297
-298 290
-298 292
-290 -292 298
-299 -297
-299 -298
297 298 299
-300 -290
-300 292
290 -292 300
-301 -296
-301 -299
296 299 301
-302 296
-302 299
-296 -299 302
-303 -301
-303 -302
301 302 303
-304 296
-304 -299
-296 299 304
-305 -300
-305 -304
300 304 305
-306 1
-306 21
-1 -21 306
-307 2
-307 21
-2 -21 307
-308 -303
-308 -306
303 306 308
-309 303
-309 306
-303 -306 309
-310 -308
-310 -309
308 309 310
-311 -303
-311 306
303 -306 311
-312 -305
-312 -307
305 307 312
-313 305
-313 307
-305 -307 313
-314 -312
-314 -313
312 313 314
-315 -305
-315 307
305 -307 315
-316 -311
-316 -314
311 314 316
-317 311
-317 314
-311 -314 317
-318 -316
-318 -317
316 317 318
-319 311
-319 -314
-311 314 319
-320 -315
-320 -319
315 319 320
-321 1
-321 22
-1 -22 321
-322 2
-322 22
-2 -22 322
-323 -318
-323 -321
318 321 323
-324 318
-324 321
-318 -321 324
-325 -323
-325 -324
323 324 325
-326 -318
-326 321
318 -321 326
-327 -320
-327 -322
320 322 327
-328 320
-328 322
-320 -322 328
-329 -327
-329 -328
327 328 329
-330 -320
-330 322
320 -322 330
-331 -326
-331 -329
326 329 331
-332 326
-332 329
-326 -329 332
-333 -331
-333 -332
331 332 333
-334 326
-334 -329
-326 329 334
-335 -330
-335 -334
330 334 335
-336 1
-336 23
-1 -23 336
-337 2
-337 23
-2 -23 337
-338 -333
-338 -336
333 336 338
-339 333
-339 336
-333 -336 339
-340 -338
-340 -339
338 339 340
-341 -333
-341 336
333 -336 341
-342 -335
-342 -337
335 337 342
-343 335
-343 337
-335 -337 343
-344 -342
-344 -343
342 343 344
-345 -335
-345 337
335 -337 345
-346 -341
-346 -344
341 344 346
-347 341
-347 344
-341 -344 347
-348 -346
-348 -347
346 347 348
-349 341
-349 -344
-341 344 349
-350 -345
-350 -349
345 349 350
-351 1
-351 24
-1 -24 351
-352 2
-352 24
-2 -24 352
-353 -348
-353 -351
348 351 353
-354 348
-354 351
-348 -351 354
-355 -353
-355 -354
353 354 355
-356 -348
-356 351
348 -351 356
-357 -350
-357 -352
350 352 357
-358 350
-358 352
-350 -352 358
-359 -357
-359 -358
357 358 359
-360 -350
-360 352
350 -352 360
-361 -356
-361 -359
356 359 361
-362 356
-362 359
-356 -359 362
-363 -361
-363 -362
361 362 363
-364 356
-364 -359
-356 359 364
-365 -360
-365 -364
360 364 365
-366 1
-366 25
-1 -25 366
-367 2
-367 25
-2 -25 367
-368 -363
-368 -366
363 366 368
-369 363
-369 366
-363 -366 369
-370 -368
-370 -369
368 369 370
-371 -363
-371 366
363 -366 371
-372 -365
-372 -367
365 367 372
-373 365
-373 367
-365 -367 373
-374 -372
-374 -373
372 373 374
-375 -365
-375 367
365 -367 375
-376 -371
-376 -374
371 374 376
-377 371
-377 374
-371 -374 377
-378 -376
-378 -377
376 377 378
-379 371
-379 -374
-371 374 379
-380 -375
-380 -379
375 379 380
-381 1
-381 26
-1 -26 381
-382 2
-382 26
-2 -26 382
-383 -378
-383 -381
378 381 383
-384 378
-384 381
-378 -381 384
-385 -383
-385 -384
383 384 385
-386 -378
-386 381
378 -381 386
-387 -380
-387 -382
380 382 387
-388 380
-388 382
-380 -382 388
-389 -387
-389 -388
387 388 389
-390 -380
-390 382
380 -382 390
-391 -386
-391 -389
386 389 391
-392 386
-392 389
-386 -389 392
-393 -391
-393 -392
391 392 393
-394 386
-394 -389
-386 389 394
-395 -390
-395 -394
390 394 395
-396 1
-396 27
-1 -27 396
-397 2
-397 27
-2 -27 397
-398 -393
-398 -396
393 396 398
-399 393
-399 396
-393 -396 399
-400 -398
-400 -399
398 399 400
-401 -393
-401 396
393 -396 401
-402 -395
-402 -397
395 397 402
-403 395
-403 397
-395 -397 403
-404 -402
-404 -403
402 403 404
-405 -395
-405 397
395 -397 405
-406 -401
-406 -404
401 404 406
-407 401
-407 404
-401 -404 407
-408 -406
-408 -407
406 407 408
-409 401
-409 -404
-401 404 409
-410 -405
-410 -409
405 409 410
-411 1
-411 28
-1 -28 411
-412 2
-412 28
-2 -28 412
-413 -408
-413 -411
408 411 413
-414 408
-414 411
-408 -411 414
-415 -413
-415 -414
413 414 415
-416 -408
-416 411
408 -411 416
-417 -410
-417 -412
410 412 417
-418 410
-418 412
-410 -412 418
-419 -417
-419 -418
417 418 419
-420 -410
-420 412
410 -412 420
-421 -416
-421 -419
416 419 421
-422 416
-422 419
-416 -419 422
-423 -421
-423 -422
421 422 423
-424 416
-424 -419
-416 419 424
-425 -420
-425 -424
420 424 425
-426 423
-426 425
-423 -425 426
-427 -53
-427 426
53 -426 427
-428 54
-428 427
-54 -427 428
-429 427
-429 -428
-427 428 429
-430 -60
-430 427
60 -427 430
-431 -70
-431 427
70 -427 431
-432 -85
-432 427
85 -427 432
-433 -100
-433 427
100 -427 433
-434 -115
-434 427
115 -427 434
-435 -130
-435 427
130 -427 435
-436 -145
-436 427
145 -427 436
-437 -160
-437 427
160 -427 437
-438 -175
-438 427
175 -427 438
-439 -190
-439 427
190 -427 439
-440 -205
-440 427
205 -427 440
-441 -220
-441 427
220 -427 441
-442 -235
-442 427
235 -427 442
-443 -250
-443 427
250 -427 443
-444 -265
-444 427
265 -427 444
-445 -280
-445 427
280 -427 445
-446 -295
-446 427
295 -427 446
-447 -310
-447 427
310 -427 447
-448 -325
-448 427
325 -427 448
-449 -340
-449 427
340 -427 449
-450 -355
-450 427
355 -427 450
-451 -370
-451 427
370 -427 451
-452 -385
-452 427
385 -427 452
-453 -400
-453 427
400 -427 453
-454 -415
-454 427
415 -427 454
-455 -54
-455 60
54 -60 455
-456 70
-456 85
-70 -85 456
-457 100
-457 115
-100 -115 457
-458 130
-458 145
-130 -145 458
-459 160
-459 175
-160 -175 459
-460 -190
-460 205
190 -205 460
-461 220
-461 -235
-220 235 461
-462 250
-462 -265
-250 265 462
-463 280
-463 -295
-280 295 463
-464 310
-464 -325
-310 325 464
-465 -340
-465 355
340 -355 465
-466 370
-466 -385
-370 385 466
-467 -400
-467 -415
400 415 467
-468 455
-468 456
-455 -456 468
-469 457
-469 458
-457 -458 469
-470 459
-470 460
-459 -460 470
-471 461
-471 462
-461 -462 471
-472 463
-472 464
-463 -464 472
-473 465
-473 466
-465 -466 473
-474 468
-474 469
-468 -469 474
-475 470
-475 471
-470 -471 475
-476 472
-476 473
-472 -473 476
-477 474
-477 475
-474 -475 477
-478 467
-478 476
-467 -476 478
-479 477
-479 478
-477 -478 479
-480 426
-480 479
-426 -479 480
480
